T = 150;
V = 15;
Q = 15;
L = 8;
C = 8;
P = 15;
time = [|  0, 16, 14,  0, 23, 16, 23, 17, 16, 14, 14, 17, 19,  5,  0,  5, 23, 19, 16, 14, 17, 16, 23, 17, 17,  0, 23, 16, 14, 19,  4,  4,  4,  4,  4,  4,  4,  4,  4,  4,  4,  4,  4,  4,  4,  4,  4,  4,  4,  4,  4,  4,  4,  4,  4,  4,  4,  4,  4,  4,
        | 16,  0, 25, 16, 33,  0, 33, 15,  0, 25, 25, 15, 18, 19, 16, 19, 33, 18,  0, 25, 15,  0, 33, 15, 15, 16, 11,  0, 25, 18, 13, 13, 13, 13, 13, 13, 13, 13, 13, 13, 13, 13, 13, 13, 13, 13, 13, 13, 13, 13, 13, 13, 13, 13, 13, 13, 13, 13, 13, 13,
        | 14, 25,  0, 14, 31, 25, 31, 30, 25,  0,  0, 30, 17, 16, 14, 16, 31, 17, 25,  0, 30, 25, 31, 30, 30, 14, 34, 25,  0, 17, 17, 17, 17, 17, 17, 17, 17, 17, 17, 17, 17, 17, 17, 17, 17, 17, 17, 17, 17, 17, 17, 17, 17, 17, 17, 17, 17, 17, 17, 17,
        |  0, 16, 14,  0, 23, 16, 23, 17, 16, 14, 14, 17, 19,  5,  0,  5, 23, 19, 16, 14, 17, 16, 23, 17, 17,  0, 23, 16, 14, 19,  4,  4,  4,  4,  4,  4,  4,  4,  4,  4,  4,  4,  4,  4,  4,  4,  4,  4,  4,  4,  4,  4,  4,  4,  4,  4,  4,  4,  4,  4,
        | 23, 33, 31, 23,  0, 33,  0, 21, 33, 31, 31, 21, 41, 18, 23, 18,  0, 41, 33, 31, 21, 33,  0, 21, 21, 23, 32, 33, 31, 41, 22, 22, 22, 22, 22, 22, 22, 22, 22, 22, 22, 22, 22, 22, 22, 22, 22, 22, 22, 22, 22, 22, 22, 22, 22, 22, 22, 22, 22, 22,
        | 16,  0, 25, 16, 33,  0, 33, 15,  0, 25, 25, 15, 18, 19, 16, 19, 33, 18,  0, 25, 15,  0, 33, 15, 15, 16, 11,  0, 25, 18, 13, 13, 13, 13, 13, 13, 13, 13, 13, 13, 13, 13, 13, 13, 13, 13, 13, 13, 13, 13, 13, 13, 13, 13, 13, 13, 13, 13, 13, 13,
        | 23, 33, 31, 23,  0, 33,  0, 21, 33, 31, 31, 21, 41, 18, 23, 18,  0, 41, 33, 31, 21, 33,  0, 21, 21, 23, 32, 33, 31, 41, 22, 22, 22, 22, 22, 22, 22, 22, 22, 22, 22, 22, 22, 22, 22, 22, 22, 22, 22, 22, 22, 22, 22, 22, 22, 22, 22, 22, 22, 22,
        | 17, 15, 30, 17, 21, 15, 21,  0, 15, 30, 30,  0, 31, 16, 17, 16, 21, 31, 15, 30,  0, 15, 21,  0,  0, 17, 12, 15, 30, 31, 14, 14, 14, 14, 14, 14, 14, 14, 14, 14, 14, 14, 14, 14, 14, 14, 14, 14, 14, 14, 14, 14, 14, 14, 14, 14, 14, 14, 14, 14,
        | 16,  0, 25, 16, 33,  0, 33, 15,  0, 25, 25, 15, 18, 19, 16, 19, 33, 18,  0, 25, 15,  0, 33, 15, 15, 16, 11,  0, 25, 18, 13, 13, 13, 13, 13, 13, 13, 13, 13, 13, 13, 13, 13, 13, 13, 13, 13, 13, 13, 13, 13, 13, 13, 13, 13, 13, 13, 13, 13, 13,
        | 14, 25,  0, 14, 31, 25, 31, 30, 25,  0,  0, 30, 17, 16, 14, 16, 31, 17, 25,  0, 30, 25, 31, 30, 30, 14, 34, 25,  0, 17, 17, 17, 17, 17, 17, 17, 17, 17, 17, 17, 17, 17, 17, 17, 17, 17, 17, 17, 17, 17, 17, 17, 17, 17, 17, 17, 17, 17, 17, 17,
        | 14, 25,  0, 14, 31, 25, 31, 30, 25,  0,  0, 30, 17, 16, 14, 16, 31, 17, 25,  0, 30, 25, 31, 30, 30, 14, 34, 25,  0, 17, 17, 17, 17, 17, 17, 17, 17, 17, 17, 17, 17, 17, 17, 17, 17, 17, 17, 17, 17, 17, 17, 17, 17, 17, 17, 17, 17, 17, 17, 17,
        | 17, 15, 30, 17, 21, 15, 21,  0, 15, 30, 30,  0, 31, 16, 17, 16, 21, 31, 15, 30,  0, 15, 21,  0,  0, 17, 12, 15, 30, 31, 14, 14, 14, 14, 14, 14, 14, 14, 14, 14, 14, 14, 14, 14, 14, 14, 14, 14, 14, 14, 14, 14, 14, 14, 14, 14, 14, 14, 14, 14,
        | 19, 18, 17, 19, 41, 18, 41, 31, 18, 17, 17, 31,  0, 23, 19, 23, 41,  0, 18, 17, 31, 18, 41, 31, 31, 19, 29, 18, 17,  0, 20, 20, 20, 20, 20, 20, 20, 20, 20, 20, 20, 20, 20, 20, 20, 20, 20, 20, 20, 20, 20, 20, 20, 20, 20, 20, 20, 20, 20, 20,
        |  5, 19, 16,  5, 18, 19, 18, 16, 19, 16, 16, 16, 23,  0,  5,  0, 18, 23, 19, 16, 16, 19, 18, 16, 16,  5, 24, 19, 16, 23,  7,  7,  7,  7,  7,  7,  7,  7,  7,  7,  7,  7,  7,  7,  7,  7,  7,  7,  7,  7,  7,  7,  7,  7,  7,  7,  7,  7,  7,  7,
        |  0, 16, 14,  0, 23, 16, 23, 17, 16, 14, 14, 17, 19,  5,  0,  5, 23, 19, 16, 14, 17, 16, 23, 17, 17,  0, 23, 16, 14, 19,  4,  4,  4,  4,  4,  4,  4,  4,  4,  4,  4,  4,  4,  4,  4,  4,  4,  4,  4,  4,  4,  4,  4,  4,  4,  4,  4,  4,  4,  4,
        |  5, 19, 16,  5, 18, 19, 18, 16, 19, 16, 16, 16, 23,  0,  5,  0, 18, 23, 19, 16, 16, 19, 18, 16, 16,  5, 24, 19, 16, 23,  7,  7,  7,  7,  7,  7,  7,  7,  7,  7,  7,  7,  7,  7,  7,  7,  7,  7,  7,  7,  7,  7,  7,  7,  7,  7,  7,  7,  7,  7,
        | 23, 33, 31, 23,  0, 33,  0, 21, 33, 31, 31, 21, 41, 18, 23, 18,  0, 41, 33, 31, 21, 33,  0, 21, 21, 23, 32, 33, 31, 41, 22, 22, 22, 22, 22, 22, 22, 22, 22, 22, 22, 22, 22, 22, 22, 22, 22, 22, 22, 22, 22, 22, 22, 22, 22, 22, 22, 22, 22, 22,
        | 19, 18, 17, 19, 41, 18, 41, 31, 18, 17, 17, 31,  0, 23, 19, 23, 41,  0, 18, 17, 31, 18, 41, 31, 31, 19, 29, 18, 17,  0, 20, 20, 20, 20, 20, 20, 20, 20, 20, 20, 20, 20, 20, 20, 20, 20, 20, 20, 20, 20, 20, 20, 20, 20, 20, 20, 20, 20, 20, 20,
        | 16,  0, 25, 16, 33,  0, 33, 15,  0, 25, 25, 15, 18, 19, 16, 19, 33, 18,  0, 25, 15,  0, 33, 15, 15, 16, 11,  0, 25, 18, 13, 13, 13, 13, 13, 13, 13, 13, 13, 13, 13, 13, 13, 13, 13, 13, 13, 13, 13, 13, 13, 13, 13, 13, 13, 13, 13, 13, 13, 13,
        | 14, 25,  0, 14, 31, 25, 31, 30, 25,  0,  0, 30, 17, 16, 14, 16, 31, 17, 25,  0, 30, 25, 31, 30, 30, 14, 34, 25,  0, 17, 17, 17, 17, 17, 17, 17, 17, 17, 17, 17, 17, 17, 17, 17, 17, 17, 17, 17, 17, 17, 17, 17, 17, 17, 17, 17, 17, 17, 17, 17,
        | 17, 15, 30, 17, 21, 15, 21,  0, 15, 30, 30,  0, 31, 16, 17, 16, 21, 31, 15, 30,  0, 15, 21,  0,  0, 17, 12, 15, 30, 31, 14, 14, 14, 14, 14, 14, 14, 14, 14, 14, 14, 14, 14, 14, 14, 14, 14, 14, 14, 14, 14, 14, 14, 14, 14, 14, 14, 14, 14, 14,
        | 16,  0, 25, 16, 33,  0, 33, 15,  0, 25, 25, 15, 18, 19, 16, 19, 33, 18,  0, 25, 15,  0, 33, 15, 15, 16, 11,  0, 25, 18, 13, 13, 13, 13, 13, 13, 13, 13, 13, 13, 13, 13, 13, 13, 13, 13, 13, 13, 13, 13, 13, 13, 13, 13, 13, 13, 13, 13, 13, 13,
        | 23, 33, 31, 23,  0, 33,  0, 21, 33, 31, 31, 21, 41, 18, 23, 18,  0, 41, 33, 31, 21, 33,  0, 21, 21, 23, 32, 33, 31, 41, 22, 22, 22, 22, 22, 22, 22, 22, 22, 22, 22, 22, 22, 22, 22, 22, 22, 22, 22, 22, 22, 22, 22, 22, 22, 22, 22, 22, 22, 22,
        | 17, 15, 30, 17, 21, 15, 21,  0, 15, 30, 30,  0, 31, 16, 17, 16, 21, 31, 15, 30,  0, 15, 21,  0,  0, 17, 12, 15, 30, 31, 14, 14, 14, 14, 14, 14, 14, 14, 14, 14, 14, 14, 14, 14, 14, 14, 14, 14, 14, 14, 14, 14, 14, 14, 14, 14, 14, 14, 14, 14,
        | 17, 15, 30, 17, 21, 15, 21,  0, 15, 30, 30,  0, 31, 16, 17, 16, 21, 31, 15, 30,  0, 15, 21,  0,  0, 17, 12, 15, 30, 31, 14, 14, 14, 14, 14, 14, 14, 14, 14, 14, 14, 14, 14, 14, 14, 14, 14, 14, 14, 14, 14, 14, 14, 14, 14, 14, 14, 14, 14, 14,
        |  0, 16, 14,  0, 23, 16, 23, 17, 16, 14, 14, 17, 19,  5,  0,  5, 23, 19, 16, 14, 17, 16, 23, 17, 17,  0, 23, 16, 14, 19,  4,  4,  4,  4,  4,  4,  4,  4,  4,  4,  4,  4,  4,  4,  4,  4,  4,  4,  4,  4,  4,  4,  4,  4,  4,  4,  4,  4,  4,  4,
        | 23, 11, 34, 23, 32, 11, 32, 12, 11, 34, 34, 12, 29, 24, 23, 24, 32, 29, 11, 34, 12, 11, 32, 12, 12, 23,  0, 11, 34, 29, 19, 19, 19, 19, 19, 19, 19, 19, 19, 19, 19, 19, 19, 19, 19, 19, 19, 19, 19, 19, 19, 19, 19, 19, 19, 19, 19, 19, 19, 19,
        | 16,  0, 25, 16, 33,  0, 33, 15,  0, 25, 25, 15, 18, 19, 16, 19, 33, 18,  0, 25, 15,  0, 33, 15, 15, 16, 11,  0, 25, 18, 13, 13, 13, 13, 13, 13, 13, 13, 13, 13, 13, 13, 13, 13, 13, 13, 13, 13, 13, 13, 13, 13, 13, 13, 13, 13, 13, 13, 13, 13,
        | 14, 25,  0, 14, 31, 25, 31, 30, 25,  0,  0, 30, 17, 16, 14, 16, 31, 17, 25,  0, 30, 25, 31, 30, 30, 14, 34, 25,  0, 17, 17, 17, 17, 17, 17, 17, 17, 17, 17, 17, 17, 17, 17, 17, 17, 17, 17, 17, 17, 17, 17, 17, 17, 17, 17, 17, 17, 17, 17, 17,
        | 19, 18, 17, 19, 41, 18, 41, 31, 18, 17, 17, 31,  0, 23, 19, 23, 41,  0, 18, 17, 31, 18, 41, 31, 31, 19, 29, 18, 17,  0, 20, 20, 20, 20, 20, 20, 20, 20, 20, 20, 20, 20, 20, 20, 20, 20, 20, 20, 20, 20, 20, 20, 20, 20, 20, 20, 20, 20, 20, 20,
        |  4, 13, 17,  4, 22, 13, 22, 14, 13, 17, 17, 14, 20,  7,  4,  7, 22, 20, 13, 17, 14, 13, 22, 14, 14,  4, 19, 13, 17, 20,  0,  0,  0,  0,  0,  0,  0,  0,  0,  0,  0,  0,  0,  0,  0,  0,  0,  0,  0,  0,  0,  0,  0,  0,  0,  0,  0,  0,  0,  0,
        |  4, 13, 17,  4, 22, 13, 22, 14, 13, 17, 17, 14, 20,  7,  4,  7, 22, 20, 13, 17, 14, 13, 22, 14, 14,  4, 19, 13, 17, 20,  0,  0,  0,  0,  0,  0,  0,  0,  0,  0,  0,  0,  0,  0,  0,  0,  0,  0,  0,  0,  0,  0,  0,  0,  0,  0,  0,  0,  0,  0,
        |  4, 13, 17,  4, 22, 13, 22, 14, 13, 17, 17, 14, 20,  7,  4,  7, 22, 20, 13, 17, 14, 13, 22, 14, 14,  4, 19, 13, 17, 20,  0,  0,  0,  0,  0,  0,  0,  0,  0,  0,  0,  0,  0,  0,  0,  0,  0,  0,  0,  0,  0,  0,  0,  0,  0,  0,  0,  0,  0,  0,
        |  4, 13, 17,  4, 22, 13, 22, 14, 13, 17, 17, 14, 20,  7,  4,  7, 22, 20, 13, 17, 14, 13, 22, 14, 14,  4, 19, 13, 17, 20,  0,  0,  0,  0,  0,  0,  0,  0,  0,  0,  0,  0,  0,  0,  0,  0,  0,  0,  0,  0,  0,  0,  0,  0,  0,  0,  0,  0,  0,  0,
        |  4, 13, 17,  4, 22, 13, 22, 14, 13, 17, 17, 14, 20,  7,  4,  7, 22, 20, 13, 17, 14, 13, 22, 14, 14,  4, 19, 13, 17, 20,  0,  0,  0,  0,  0,  0,  0,  0,  0,  0,  0,  0,  0,  0,  0,  0,  0,  0,  0,  0,  0,  0,  0,  0,  0,  0,  0,  0,  0,  0,
        |  4, 13, 17,  4, 22, 13, 22, 14, 13, 17, 17, 14, 20,  7,  4,  7, 22, 20, 13, 17, 14, 13, 22, 14, 14,  4, 19, 13, 17, 20,  0,  0,  0,  0,  0,  0,  0,  0,  0,  0,  0,  0,  0,  0,  0,  0,  0,  0,  0,  0,  0,  0,  0,  0,  0,  0,  0,  0,  0,  0,
        |  4, 13, 17,  4, 22, 13, 22, 14, 13, 17, 17, 14, 20,  7,  4,  7, 22, 20, 13, 17, 14, 13, 22, 14, 14,  4, 19, 13, 17, 20,  0,  0,  0,  0,  0,  0,  0,  0,  0,  0,  0,  0,  0,  0,  0,  0,  0,  0,  0,  0,  0,  0,  0,  0,  0,  0,  0,  0,  0,  0,
        |  4, 13, 17,  4, 22, 13, 22, 14, 13, 17, 17, 14, 20,  7,  4,  7, 22, 20, 13, 17, 14, 13, 22, 14, 14,  4, 19, 13, 17, 20,  0,  0,  0,  0,  0,  0,  0,  0,  0,  0,  0,  0,  0,  0,  0,  0,  0,  0,  0,  0,  0,  0,  0,  0,  0,  0,  0,  0,  0,  0,
        |  4, 13, 17,  4, 22, 13, 22, 14, 13, 17, 17, 14, 20,  7,  4,  7, 22, 20, 13, 17, 14, 13, 22, 14, 14,  4, 19, 13, 17, 20,  0,  0,  0,  0,  0,  0,  0,  0,  0,  0,  0,  0,  0,  0,  0,  0,  0,  0,  0,  0,  0,  0,  0,  0,  0,  0,  0,  0,  0,  0,
        |  4, 13, 17,  4, 22, 13, 22, 14, 13, 17, 17, 14, 20,  7,  4,  7, 22, 20, 13, 17, 14, 13, 22, 14, 14,  4, 19, 13, 17, 20,  0,  0,  0,  0,  0,  0,  0,  0,  0,  0,  0,  0,  0,  0,  0,  0,  0,  0,  0,  0,  0,  0,  0,  0,  0,  0,  0,  0,  0,  0,
        |  4, 13, 17,  4, 22, 13, 22, 14, 13, 17, 17, 14, 20,  7,  4,  7, 22, 20, 13, 17, 14, 13, 22, 14, 14,  4, 19, 13, 17, 20,  0,  0,  0,  0,  0,  0,  0,  0,  0,  0,  0,  0,  0,  0,  0,  0,  0,  0,  0,  0,  0,  0,  0,  0,  0,  0,  0,  0,  0,  0,
        |  4, 13, 17,  4, 22, 13, 22, 14, 13, 17, 17, 14, 20,  7,  4,  7, 22, 20, 13, 17, 14, 13, 22, 14, 14,  4, 19, 13, 17, 20,  0,  0,  0,  0,  0,  0,  0,  0,  0,  0,  0,  0,  0,  0,  0,  0,  0,  0,  0,  0,  0,  0,  0,  0,  0,  0,  0,  0,  0,  0,
        |  4, 13, 17,  4, 22, 13, 22, 14, 13, 17, 17, 14, 20,  7,  4,  7, 22, 20, 13, 17, 14, 13, 22, 14, 14,  4, 19, 13, 17, 20,  0,  0,  0,  0,  0,  0,  0,  0,  0,  0,  0,  0,  0,  0,  0,  0,  0,  0,  0,  0,  0,  0,  0,  0,  0,  0,  0,  0,  0,  0,
        |  4, 13, 17,  4, 22, 13, 22, 14, 13, 17, 17, 14, 20,  7,  4,  7, 22, 20, 13, 17, 14, 13, 22, 14, 14,  4, 19, 13, 17, 20,  0,  0,  0,  0,  0,  0,  0,  0,  0,  0,  0,  0,  0,  0,  0,  0,  0,  0,  0,  0,  0,  0,  0,  0,  0,  0,  0,  0,  0,  0,
        |  4, 13, 17,  4, 22, 13, 22, 14, 13, 17, 17, 14, 20,  7,  4,  7, 22, 20, 13, 17, 14, 13, 22, 14, 14,  4, 19, 13, 17, 20,  0,  0,  0,  0,  0,  0,  0,  0,  0,  0,  0,  0,  0,  0,  0,  0,  0,  0,  0,  0,  0,  0,  0,  0,  0,  0,  0,  0,  0,  0,
        |  4, 13, 17,  4, 22, 13, 22, 14, 13, 17, 17, 14, 20,  7,  4,  7, 22, 20, 13, 17, 14, 13, 22, 14, 14,  4, 19, 13, 17, 20,  0,  0,  0,  0,  0,  0,  0,  0,  0,  0,  0,  0,  0,  0,  0,  0,  0,  0,  0,  0,  0,  0,  0,  0,  0,  0,  0,  0,  0,  0,
        |  4, 13, 17,  4, 22, 13, 22, 14, 13, 17, 17, 14, 20,  7,  4,  7, 22, 20, 13, 17, 14, 13, 22, 14, 14,  4, 19, 13, 17, 20,  0,  0,  0,  0,  0,  0,  0,  0,  0,  0,  0,  0,  0,  0,  0,  0,  0,  0,  0,  0,  0,  0,  0,  0,  0,  0,  0,  0,  0,  0,
        |  4, 13, 17,  4, 22, 13, 22, 14, 13, 17, 17, 14, 20,  7,  4,  7, 22, 20, 13, 17, 14, 13, 22, 14, 14,  4, 19, 13, 17, 20,  0,  0,  0,  0,  0,  0,  0,  0,  0,  0,  0,  0,  0,  0,  0,  0,  0,  0,  0,  0,  0,  0,  0,  0,  0,  0,  0,  0,  0,  0,
        |  4, 13, 17,  4, 22, 13, 22, 14, 13, 17, 17, 14, 20,  7,  4,  7, 22, 20, 13, 17, 14, 13, 22, 14, 14,  4, 19, 13, 17, 20,  0,  0,  0,  0,  0,  0,  0,  0,  0,  0,  0,  0,  0,  0,  0,  0,  0,  0,  0,  0,  0,  0,  0,  0,  0,  0,  0,  0,  0,  0,
        |  4, 13, 17,  4, 22, 13, 22, 14, 13, 17, 17, 14, 20,  7,  4,  7, 22, 20, 13, 17, 14, 13, 22, 14, 14,  4, 19, 13, 17, 20,  0,  0,  0,  0,  0,  0,  0,  0,  0,  0,  0,  0,  0,  0,  0,  0,  0,  0,  0,  0,  0,  0,  0,  0,  0,  0,  0,  0,  0,  0,
        |  4, 13, 17,  4, 22, 13, 22, 14, 13, 17, 17, 14, 20,  7,  4,  7, 22, 20, 13, 17, 14, 13, 22, 14, 14,  4, 19, 13, 17, 20,  0,  0,  0,  0,  0,  0,  0,  0,  0,  0,  0,  0,  0,  0,  0,  0,  0,  0,  0,  0,  0,  0,  0,  0,  0,  0,  0,  0,  0,  0,
        |  4, 13, 17,  4, 22, 13, 22, 14, 13, 17, 17, 14, 20,  7,  4,  7, 22, 20, 13, 17, 14, 13, 22, 14, 14,  4, 19, 13, 17, 20,  0,  0,  0,  0,  0,  0,  0,  0,  0,  0,  0,  0,  0,  0,  0,  0,  0,  0,  0,  0,  0,  0,  0,  0,  0,  0,  0,  0,  0,  0,
        |  4, 13, 17,  4, 22, 13, 22, 14, 13, 17, 17, 14, 20,  7,  4,  7, 22, 20, 13, 17, 14, 13, 22, 14, 14,  4, 19, 13, 17, 20,  0,  0,  0,  0,  0,  0,  0,  0,  0,  0,  0,  0,  0,  0,  0,  0,  0,  0,  0,  0,  0,  0,  0,  0,  0,  0,  0,  0,  0,  0,
        |  4, 13, 17,  4, 22, 13, 22, 14, 13, 17, 17, 14, 20,  7,  4,  7, 22, 20, 13, 17, 14, 13, 22, 14, 14,  4, 19, 13, 17, 20,  0,  0,  0,  0,  0,  0,  0,  0,  0,  0,  0,  0,  0,  0,  0,  0,  0,  0,  0,  0,  0,  0,  0,  0,  0,  0,  0,  0,  0,  0,
        |  4, 13, 17,  4, 22, 13, 22, 14, 13, 17, 17, 14, 20,  7,  4,  7, 22, 20, 13, 17, 14, 13, 22, 14, 14,  4, 19, 13, 17, 20,  0,  0,  0,  0,  0,  0,  0,  0,  0,  0,  0,  0,  0,  0,  0,  0,  0,  0,  0,  0,  0,  0,  0,  0,  0,  0,  0,  0,  0,  0,
        |  4, 13, 17,  4, 22, 13, 22, 14, 13, 17, 17, 14, 20,  7,  4,  7, 22, 20, 13, 17, 14, 13, 22, 14, 14,  4, 19, 13, 17, 20,  0,  0,  0,  0,  0,  0,  0,  0,  0,  0,  0,  0,  0,  0,  0,  0,  0,  0,  0,  0,  0,  0,  0,  0,  0,  0,  0,  0,  0,  0,
        |  4, 13, 17,  4, 22, 13, 22, 14, 13, 17, 17, 14, 20,  7,  4,  7, 22, 20, 13, 17, 14, 13, 22, 14, 14,  4, 19, 13, 17, 20,  0,  0,  0,  0,  0,  0,  0,  0,  0,  0,  0,  0,  0,  0,  0,  0,  0,  0,  0,  0,  0,  0,  0,  0,  0,  0,  0,  0,  0,  0,
        |  4, 13, 17,  4, 22, 13, 22, 14, 13, 17, 17, 14, 20,  7,  4,  7, 22, 20, 13, 17, 14, 13, 22, 14, 14,  4, 19, 13, 17, 20,  0,  0,  0,  0,  0,  0,  0,  0,  0,  0,  0,  0,  0,  0,  0,  0,  0,  0,  0,  0,  0,  0,  0,  0,  0,  0,  0,  0,  0,  0,
        |  4, 13, 17,  4, 22, 13, 22, 14, 13, 17, 17, 14, 20,  7,  4,  7, 22, 20, 13, 17, 14, 13, 22, 14, 14,  4, 19, 13, 17, 20,  0,  0,  0,  0,  0,  0,  0,  0,  0,  0,  0,  0,  0,  0,  0,  0,  0,  0,  0,  0,  0,  0,  0,  0,  0,  0,  0,  0,  0,  0,
        |  4, 13, 17,  4, 22, 13, 22, 14, 13, 17, 17, 14, 20,  7,  4,  7, 22, 20, 13, 17, 14, 13, 22, 14, 14,  4, 19, 13, 17, 20,  0,  0,  0,  0,  0,  0,  0,  0,  0,  0,  0,  0,  0,  0,  0,  0,  0,  0,  0,  0,  0,  0,  0,  0,  0,  0,  0,  0,  0,  0|];
l =     [  3,  5,  6,  3,  8,  5,  8,  4,  5,  6,  6,  4,  1,  2,  3,  2,  8,  1,  5,  6,  4,  5,  8,  4,  4,  3,  7,  5,  6,  1];
a =     [  4, 13, 30, 25, 22, 32, 22, 14, 14, 25, 17, 41, 20, 19,  4, 28, 60, 61, 54, 68, 61, 66, 45, 48, 65, 50, 69, 51, 46, 35];
b =     [ 33, 44, 54, 41, 38, 59, 57, 34, 32, 41, 50, 78, 51, 37, 29, 79,107,108,121,108,104,108,113,114,114, 98,112,114,102, 94];
s =     [ 19, 14, 14, 13, 15, 14, 11, 10, 19, 10, 19, 16, 13, 11, 12, 19, 14, 14, 13, 15, 14, 11, 10, 19, 10, 19, 16, 13, 11, 12];
q =     [  4,  3,  3,  2,  4,  1,  2,  2,  1,  2,  1,  4,  4,  3,  4, -4, -3, -3, -2, -4, -1, -2, -2, -1, -2, -1, -4, -4, -3, -4];
